
Gurobi 11.0.1 (win64) logging started Tue May 14 15:34:07 2024

Set parameter LogFile to value "output/solver_log4.txt"
Gurobi Optimizer version 11.0.1 build v11.0.1rc0 (win64 - Windows 11.0 (22631.2))

CPU model: 11th Gen Intel(R) Core(TM) i7-1165G7 @ 2.80GHz, instruction set [SSE2|AVX|AVX2|AVX512]
Thread count: 4 physical cores, 8 logical processors, using up to 8 threads

Optimize a model with 2219 rows, 433 columns and 41421 nonzeros
Model fingerprint: 0x4ef042f4
Variable types: 248 continuous, 185 integer (185 binary)
Coefficient statistics:
  Matrix range     [4e-01, 1e+05]
  Objective range  [1e+00, 1e+02]
  Bounds range     [1e+00, 1e+00]
  RHS range        [1e-02, 1e+05]

User MIP start produced solution with objective 39729.3 (0.01s)
User MIP start produced solution with objective 39729.3 (0.01s)
Loaded user MIP start with objective 39729.3

Presolve removed 103 rows and 105 columns
Presolve time: 0.05s
Presolved: 2116 rows, 328 columns, 40758 nonzeros
Variable types: 235 continuous, 93 integer (91 binary)

Root relaxation: objective 4.313401e+04, 615 iterations, 0.04 seconds (0.06 work units)

    Nodes    |    Current Node    |     Objective Bounds      |     Work
 Expl Unexpl |  Obj  Depth IntInf | Incumbent    BestBd   Gap | It/Node Time

     0     0 43134.0096    0   14 39729.3353 43134.0096  8.57%     -    0s
     0     0 42974.4417    0   13 39729.3353 42974.4417  8.17%     -    0s
     0     0 41595.6564    0   16 39729.3353 41595.6564  4.70%     -    0s
     0     0 40885.8730    0   13 39729.3353 40885.8730  2.91%     -    0s
     0     0 40885.8730    0   13 39729.3353 40885.8730  2.91%     -    0s
     0     0 40870.6819    0   17 39729.3353 40870.6819  2.87%     -    0s
     0     0 40710.6024    0   18 39729.3353 40710.6024  2.47%     -    0s
     0     0 40532.5880    0   17 39729.3353 40532.5880  2.02%     -    0s
     0     0 40532.5880    0   17 39729.3353 40532.5880  2.02%     -    0s
     0     0 40532.5880    0   17 39729.3353 40532.5880  2.02%     -    0s
     0     0 40492.6138    0   18 39729.3353 40492.6138  1.92%     -    0s
     0     0 40063.9365    0   13 39729.3353 40063.9365  0.84%     -    0s
     0     0 40035.5055    0   13 39729.3353 40035.5055  0.77%     -    0s
     0     0 40025.0378    0   13 39729.3353 40025.0378  0.74%     -    0s
     0     0 40025.0378    0   13 39729.3353 40025.0378  0.74%     -    0s
H    0     0                    39733.657767 40025.0378  0.73%     -    0s
     0     0 40024.8629    0   13 39733.6578 40024.8629  0.73%     -    0s
     0     0 39999.4204    0   12 39733.6578 39999.4204  0.67%     -    0s
     0     0 39940.8483    0   14 39733.6578 39940.8483  0.52%     -    0s
     0     0 39786.9530    0   11 39733.6578 39786.9530  0.13%     -    0s
     0     0 39737.4098    0   15 39733.6578 39737.4098  0.01%     -    1s

Cutting planes:
  Gomory: 1
  Cover: 5
  Implied bound: 3
  MIR: 12
  RLT: 1
  Relax-and-lift: 1

Explored 1 nodes (4431 simplex iterations) in 1.06 seconds (1.25 work units)
Thread count was 8 (of 8 available processors)

Solution count 3: 39733.7 39733.7 39729.3 

Optimal solution found (tolerance 1.00e-04)
Best objective 3.973365776678e+04, best bound 3.973740984974e+04, gap 0.0094%
